# Example from Ruben Martins and Inès Lynce
# Breaking Local Symmetries in Quasigroup Completion Problems, page 3
# The solution is unique:
#    1 3 2 5 4
#    2 5 4 1 3
#    4 1 3 2 5
#    5 4 1 3 2
#    3 2 5 4 1
param n := 5;
param m: 1 2 3 4 5 :=
  1  1 0 0 0 4
  2  0 5 0 0 0
  3  4 0 0 2 0
  4  0 4 0 0 0
  5  0 0 5 0 1
;
